(set-info :source |printed by MathSAT|)
(declare-fun H_3 () Int)
(declare-fun .y.19 () Int)
(declare-fun T_2 () Int)
(declare-fun .y.20 () Int)
(declare-fun U_2 () (Array Int Int))
(declare-fun .y.21 () (Array Int Int))
(declare-fun P_3 () Int)
(declare-fun .y.22 () Int)
(declare-fun .y.15 () (Array Int Int))
(declare-fun .y.23 () (Array Int Int))
(declare-fun K_3 () Int)
(declare-fun .y.24 () Int)
(declare-fun L_3 () (Array Int Int))
(declare-fun .y.25 () (Array Int Int))
(declare-fun A_3 () Int)
(declare-fun .y.26 () Int)
(declare-fun I_3 () (Array Int Int))
(declare-fun .y.27 () (Array Int Int))
(declare-fun .y.16 () Int)
(declare-fun .y.28 () Int)
(declare-fun Q_3 () (Array Int Int))
(declare-fun .y.29 () (Array Int Int))
(declare-fun D_3 () Int)
(declare-fun .y.30 () Int)
(declare-fun .loc.17 () Bool)
(declare-fun .loc.31 () Bool)
(declare-fun .loc.18 () Bool)
(declare-fun .loc.32 () Bool)
(declare-fun M_3 () Int)
(declare-fun J_3 () Int)
(declare-fun S_3 () Int)
(declare-fun R_3 () Int)
(declare-fun N_3 () Int)
(declare-fun O_3 () Int)
(declare-fun A1_1 () Bool)
(declare-fun C1_1 () Bool)
(declare-fun Z_1 () Bool)
(declare-fun V_2 () Int)
(declare-fun B1_1 () Bool)
(declare-fun W_1 () Int)
(declare-fun X_1 () Int)
(declare-fun Y_1 () Bool)
(declare-fun F_3 () Bool)
(declare-fun E_3 () Bool)
(declare-fun G_3 () Bool)
(declare-fun B_3 () Bool)
(define-fun .def_8 () Int (! H_3 :next |.y.19|))
(define-fun .def_10 () Int (! T_2 :next |.y.20|))
(define-fun .def_12 () (Array Int Int) (! U_2 :next |.y.21|))
(define-fun .def_14 () Int (! P_3 :next |.y.22|))
(define-fun .def_16 () (Array Int Int) (! .y.15 :next |.y.23|))
(define-fun .def_18 () Int (! K_3 :next |.y.24|))
(define-fun .def_20 () (Array Int Int) (! L_3 :next |.y.25|))
(define-fun .def_22 () Int (! A_3 :next |.y.26|))
(define-fun .def_24 () (Array Int Int) (! I_3 :next |.y.27|))
(define-fun .def_26 () Int (! .y.16 :next |.y.28|))
(define-fun .def_28 () (Array Int Int) (! Q_3 :next |.y.29|))
(define-fun .def_30 () Int (! D_3 :next |.y.30|))
(define-fun .def_32 () Bool (! .loc.17 :next |.loc.31|))
(define-fun .def_34 () Bool (! .loc.18 :next |.loc.32|))
(define-fun .def_51 () Int (! M_3 :next |.xtv.1|))
(define-fun .def_56 () Int (! J_3 :next |.xtv.2|))
(define-fun .def_72 () Int (! S_3 :next |.xtv.3|))
(define-fun .def_73 () Int (! R_3 :next |.xtv.4|))
(define-fun .def_77 () Int (! N_3 :next |.xtv.5|))
(define-fun .def_84 () Int (! O_3 :next |.xtv.6|))
(define-fun .def_240 () Bool (! A1_1 :next |.xtv.7|))
(define-fun .def_242 () Bool (! C1_1 :next |.xtv.8|))
(define-fun .def_244 () Bool (! Z_1 :next |.xtv.9|))
(define-fun .def_254 () Int (! V_2 :next |.xtv.10|))
(define-fun .def_264 () Bool (! B1_1 :next |.xtv.11|))
(define-fun .def_283 () Int (! W_1 :next |.xtv.12|))
(define-fun .def_288 () Int (! X_1 :next |.xtv.13|))
(define-fun .def_293 () Bool (! Y_1 :next |.xtv.14|))
(define-fun .def_331 () Bool (! F_3 :next |.xtv.15|))
(define-fun .def_335 () Bool (! E_3 :next |.xtv.16|))
(define-fun .def_337 () Bool (! G_3 :next |.xtv.17|))
(define-fun .def_354 () Bool (! B_3 :next |.xtv.18|))
(define-fun .def_134 () Bool (not .def_32))
(define-fun .def_47 () Bool (not .def_34))
(define-fun .def_377 () Bool (! (and .def_47 .def_134) :init true))
(define-fun .def_366 () Bool (and .def_240 .def_264))
(define-fun .def_367 () Bool (or .def_244 .def_366))
(define-fun .def_363 () Bool (not .def_354))
(define-fun .def_241 () Bool (not .def_240))
(define-fun .def_156 () Bool (<= .def_30 .def_22))
(define-fun .def_362 () Bool (or .def_156 .def_241))
(define-fun .def_364 () Bool (or .def_362 .def_363))
(define-fun .def_265 () Bool (not .def_264))
(define-fun .def_360 () Bool (or .def_240 .def_265))
(define-fun .def_358 () Bool (or .def_241 .def_337))
(define-fun .def_355 () Bool (and .def_240 .def_354))
(define-fun .def_356 () Bool (or .def_241 .def_355))
(define-fun .def_42 () Bool (<= .def_8 0))
(define-fun .def_43 () Bool (not .def_42))
(define-fun .def_352 () Bool (or .def_43 .def_241))
(define-fun .def_37 () Bool (<= .def_18 0))
(define-fun .def_38 () Bool (not .def_37))
(define-fun .def_350 () Bool (or .def_38 .def_241))
(define-fun .def_345 () Bool (<= .def_72 (- 1)))
(define-fun .def_346 () Bool (not .def_345))
(define-fun .def_347 () Bool (= .def_335 .def_346))
(define-fun .def_348 () Bool (or .def_241 .def_347))
(define-fun .def_341 () Bool (= .def_77 .def_84))
(define-fun .def_342 () Bool (= .def_242 .def_341))
(define-fun .def_343 () Bool (or .def_241 .def_342))
(define-fun .def_336 () Bool (and .def_331 .def_335))
(define-fun .def_338 () Bool (= .def_336 .def_337))
(define-fun .def_339 () Bool (or .def_241 .def_338))
(define-fun .def_329 () Bool (<= .def_30 .def_72))
(define-fun .def_330 () Bool (not .def_329))
(define-fun .def_332 () Bool (= .def_330 .def_331))
(define-fun .def_333 () Bool (or .def_241 .def_332))
(define-fun .def_172 () Int (select .def_24 .def_56))
(define-fun .def_326 () Bool (= .def_77 .def_172))
(define-fun .def_327 () Bool (or .def_241 .def_326))
(define-fun .def_322 () Int (select .def_20 .def_51))
(define-fun .def_323 () Bool (= .def_84 .def_322))
(define-fun .def_324 () Bool (or .def_241 .def_323))
(define-fun .def_114 () Int (* (- 1) .def_56))
(define-fun .def_317 () Int (+ .def_114 .def_72))
(define-fun .def_318 () Int (+ .def_8 .def_317))
(define-fun .def_319 () Bool (= .def_318 0))
(define-fun .def_320 () Bool (or .def_241 .def_319))
(define-fun .def_109 () Int (* (- 1) .def_51))
(define-fun .def_310 () Int (+ .def_109 .def_72))
(define-fun .def_311 () Int (+ .def_18 .def_310))
(define-fun .def_312 () Bool (= .def_311 0))
(define-fun .def_313 () Bool (or .def_241 .def_312))
(define-fun .def_305 () Bool (not .def_293))
(define-fun .def_245 () Bool (not .def_244))
(define-fun .def_306 () Bool (or .def_245 .def_305))
(define-fun .def_302 () Bool (and .def_240 .def_244))
(define-fun .def_303 () Bool (or .def_245 .def_302))
(define-fun .def_253 () Bool (<= .def_10 0))
(define-fun .def_299 () Bool (not .def_253))
(define-fun .def_300 () Bool (or .def_245 .def_299))
(define-fun .def_39 () Bool (<= .def_14 0))
(define-fun .def_40 () Bool (not .def_39))
(define-fun .def_297 () Bool (or .def_40 .def_245))
(define-fun .def_292 () Bool (= .def_283 .def_288))
(define-fun .def_294 () Bool (= .def_292 .def_293))
(define-fun .def_295 () Bool (or .def_245 .def_294))
(define-fun .def_287 () Int (select .def_12 .def_254))
(define-fun .def_289 () Bool (= .def_287 .def_288))
(define-fun .def_290 () Bool (or .def_245 .def_289))
(define-fun .def_282 () Int (select .def_28 .def_73))
(define-fun .def_284 () Bool (= .def_282 .def_283))
(define-fun .def_285 () Bool (or .def_245 .def_284))
(define-fun .def_274 () Int (* (- 1) .def_254))
(define-fun .def_277 () Int (+ .def_72 .def_274))
(define-fun .def_278 () Int (+ .def_10 .def_277))
(define-fun .def_279 () Bool (= .def_278 0))
(define-fun .def_280 () Bool (or .def_245 .def_279))
(define-fun .def_91 () Int (* (- 1) .def_73))
(define-fun .def_269 () Int (+ .def_72 .def_91))
(define-fun .def_270 () Int (+ .def_14 .def_269))
(define-fun .def_271 () Bool (= .def_270 0))
(define-fun .def_272 () Bool (or .def_245 .def_271))
(define-fun .def_263 () Bool (not .def_242))
(define-fun .def_266 () Bool (or .def_263 .def_265))
(define-fun .def_267 () Bool (or .def_241 .def_266))
(define-fun .def_255 () Bool (<= .def_254 0))
(define-fun .def_256 () Bool (not .def_255))
(define-fun .def_257 () Bool (or .def_245 .def_256))
(define-fun .def_258 () Bool (or .def_253 .def_257))
(define-fun .def_122 () Bool (<= .def_73 0))
(define-fun .def_123 () Bool (not .def_122))
(define-fun .def_251 () Bool (or .def_123 .def_245))
(define-fun .def_252 () Bool (or .def_39 .def_251))
(define-fun .def_259 () Bool (and .def_252 .def_258))
(define-fun .def_52 () Bool (<= .def_51 0))
(define-fun .def_53 () Bool (not .def_52))
(define-fun .def_249 () Bool (or .def_53 .def_241))
(define-fun .def_250 () Bool (or .def_37 .def_249))
(define-fun .def_260 () Bool (and .def_250 .def_259))
(define-fun .def_57 () Bool (<= .def_56 0))
(define-fun .def_58 () Bool (not .def_57))
(define-fun .def_247 () Bool (or .def_58 .def_241))
(define-fun .def_248 () Bool (or .def_42 .def_247))
(define-fun .def_261 () Bool (and .def_248 .def_260))
(define-fun .def_243 () Bool (or .def_241 .def_242))
(define-fun .def_246 () Bool (or .def_243 .def_245))
(define-fun .def_262 () Bool (and .def_246 .def_261))
(define-fun .def_268 () Bool (and .def_262 .def_267))
(define-fun .def_273 () Bool (and .def_268 .def_272))
(define-fun .def_281 () Bool (and .def_273 .def_280))
(define-fun .def_286 () Bool (and .def_281 .def_285))
(define-fun .def_291 () Bool (and .def_286 .def_290))
(define-fun .def_296 () Bool (and .def_291 .def_295))
(define-fun .def_298 () Bool (and .def_296 .def_297))
(define-fun .def_301 () Bool (and .def_298 .def_300))
(define-fun .def_304 () Bool (and .def_301 .def_303))
(define-fun .def_307 () Bool (and .def_304 .def_306))
(define-fun .def_314 () Bool (and .def_307 .def_313))
(define-fun .def_321 () Bool (and .def_314 .def_320))
(define-fun .def_325 () Bool (and .def_321 .def_324))
(define-fun .def_328 () Bool (and .def_325 .def_327))
(define-fun .def_334 () Bool (and .def_328 .def_333))
(define-fun .def_340 () Bool (and .def_334 .def_339))
(define-fun .def_344 () Bool (and .def_340 .def_343))
(define-fun .def_349 () Bool (and .def_344 .def_348))
(define-fun .def_351 () Bool (and .def_349 .def_350))
(define-fun .def_353 () Bool (and .def_351 .def_352))
(define-fun .def_357 () Bool (and .def_353 .def_356))
(define-fun .def_359 () Bool (and .def_357 .def_358))
(define-fun .def_361 () Bool (and .def_359 .def_360))
(define-fun .def_365 () Bool (and .def_361 .def_364))
(define-fun .def_368 () Bool (and .def_365 .def_367))
(define-fun .def_369 () Bool (and .def_34 .def_368))
(define-fun .def_370 () Bool (and .def_134 .def_369))
(define-fun .def_371 () Bool (and .loc.31 .def_370))
(define-fun .def_238 () Bool (= .def_26 .y.30))
(define-fun .def_236 () Bool (= .y.25 .def_24))
(define-fun .def_234 () Bool (= .y.24 .def_22))
(define-fun .def_232 () Bool (= .y.22 .def_18))
(define-fun .def_230 () Bool (= .y.21 .def_16))
(define-fun .def_228 () Bool (= .y.20 .def_14))
(define-fun .def_224 () Bool (= .def_12 .y.27))
(define-fun .def_222 () Bool (= .def_20 .y.29))
(define-fun .def_220 () Bool (= .y.26 0))
(define-fun .def_161 () Bool (not .loc.31))
(define-fun .def_218 () Bool (and .def_32 .def_161))
(define-fun .def_219 () Bool (and .def_47 .def_218))
(define-fun .def_221 () Bool (and .def_219 .def_220))
(define-fun .def_223 () Bool (and .def_221 .def_222))
(define-fun .def_225 () Bool (and .def_223 .def_224))
(define-fun .def_119 () Bool (<= .def_26 .def_10))
(define-fun .def_226 () Bool (and .def_119 .def_225))
(define-fun .def_49 () Bool (= .def_8 .y.19))
(define-fun .def_227 () Bool (and .def_49 .def_226))
(define-fun .def_229 () Bool (and .def_227 .def_228))
(define-fun .def_231 () Bool (and .def_229 .def_230))
(define-fun .def_233 () Bool (and .def_231 .def_232))
(define-fun .def_235 () Bool (and .def_233 .def_234))
(define-fun .def_237 () Bool (and .def_235 .def_236))
(define-fun .def_239 () Bool (and .def_237 .def_238))
(define-fun .def_372 () Bool (or .def_239 .def_371))
(define-fun .def_216 () Bool (= .def_30 .y.30))
(define-fun .def_214 () Bool (= .def_20 .y.25))
(define-fun .def_210 () Bool (= .def_12 .y.21))
(define-fun .def_208 () Bool (= .def_10 .y.20))
(define-fun .def_204 () Bool (<= .def_77 0))
(define-fun .def_205 () Bool (not .def_204))
(define-fun .def_206 () Bool (or .def_42 .def_205))
(define-fun .def_126 () Bool (<= .def_84 0))
(define-fun .def_127 () Bool (not .def_126))
(define-fun .def_200 () Bool (or .def_39 .def_127))
(define-fun .def_196 () Int (+ .def_22 .def_109))
(define-fun .def_197 () Int (+ .def_14 .def_196))
(define-fun .def_198 () Bool (= .def_197 0))
(define-fun .def_98 () Int (* (- 1) .def_84))
(define-fun .def_191 () Int (+ .def_22 .def_98))
(define-fun .def_192 () Int (+ .def_14 .def_191))
(define-fun .def_193 () Bool (= .def_192 0))
(define-fun .def_185 () Int (+ .def_22 .def_114))
(define-fun .def_186 () Int (+ .def_8 .def_185))
(define-fun .def_187 () Bool (= .def_186 0))
(define-fun .def_176 () Int (* (- 1) .def_77))
(define-fun .def_179 () Int (+ .def_22 .def_176))
(define-fun .def_180 () Int (+ .def_8 .def_179))
(define-fun .def_181 () Bool (= .def_180 0))
(define-fun .def_173 () (Array Int Int) (store .def_28 .def_84 .def_172))
(define-fun .def_174 () Bool (= .y.29 .def_173))
(define-fun .def_168 () Int (select .def_28 .def_51))
(define-fun .def_169 () (Array Int Int) (store .def_24 .def_77 .def_168))
(define-fun .def_170 () Bool (= .y.27 .def_169))
(define-fun .def_164 () Int (* (- 1) .y.26))
(define-fun .def_165 () Int (+ .def_22 .def_164))
(define-fun .def_166 () Bool (= .def_165 (- 1)))
(define-fun .def_157 () Bool (not .def_156))
(define-fun .def_155 () Bool (and .def_40 .def_43))
(define-fun .def_158 () Bool (and .def_155 .def_157))
(define-fun .def_159 () Bool (and .def_34 .def_158))
(define-fun .def_160 () Bool (and .def_134 .def_159))
(define-fun .def_162 () Bool (and .def_160 .def_161))
(define-fun .def_163 () Bool (and .def_49 .def_162))
(define-fun .def_167 () Bool (and .def_163 .def_166))
(define-fun .def_171 () Bool (and .def_167 .def_170))
(define-fun .def_175 () Bool (and .def_171 .def_174))
(define-fun .def_182 () Bool (and .def_175 .def_181))
(define-fun .def_188 () Bool (and .def_182 .def_187))
(define-fun .def_194 () Bool (and .def_188 .def_193))
(define-fun .def_199 () Bool (and .def_194 .def_198))
(define-fun .def_201 () Bool (and .def_199 .def_200))
(define-fun .def_54 () Bool (or .def_39 .def_53))
(define-fun .def_202 () Bool (and .def_54 .def_201))
(define-fun .def_59 () Bool (or .def_42 .def_58))
(define-fun .def_203 () Bool (and .def_59 .def_202))
(define-fun .def_207 () Bool (and .def_203 .def_206))
(define-fun .def_209 () Bool (and .def_207 .def_208))
(define-fun .def_211 () Bool (and .def_209 .def_210))
(define-fun .def_61 () Bool (= .def_14 .y.22))
(define-fun .def_212 () Bool (and .def_61 .def_211))
(define-fun .def_63 () Bool (= .def_18 .y.24))
(define-fun .def_213 () Bool (and .def_63 .def_212))
(define-fun .def_215 () Bool (and .def_213 .def_214))
(define-fun .def_217 () Bool (and .def_215 .def_216))
(define-fun .def_373 () Bool (or .def_217 .def_372))
(define-fun .def_374 () Bool (and .loc.32 .def_373))
(define-fun .def_152 () Bool (<= .y.22 0))
(define-fun .def_153 () Bool (not .def_152))
(define-fun .def_149 () Bool (<= .y.19 0))
(define-fun .def_150 () Bool (not .def_149))
(define-fun .def_146 () Bool (<= .y.24 0))
(define-fun .def_147 () Bool (not .def_146))
(define-fun .def_143 () Bool (<= .y.26 0))
(define-fun .def_144 () Bool (not .def_143))
(define-fun .def_140 () Bool (<= .y.28 0))
(define-fun .def_141 () Bool (not .def_140))
(define-fun .def_138 () Bool (= .y.20 0))
(define-fun .def_135 () Bool (and .loc.31 .def_134))
(define-fun .def_136 () Bool (and .def_47 .def_135))
(define-fun .def_65 () Bool (not .loc.32))
(define-fun .def_137 () Bool (and .def_65 .def_136))
(define-fun .def_139 () Bool (and .def_137 .def_138))
(define-fun .def_142 () Bool (and .def_139 .def_141))
(define-fun .def_145 () Bool (and .def_142 .def_144))
(define-fun .def_148 () Bool (and .def_145 .def_147))
(define-fun .def_151 () Bool (and .def_148 .def_150))
(define-fun .def_154 () Bool (and .def_151 .def_153))
(define-fun .def_375 () Bool (or .def_154 .def_374))
(define-fun .def_132 () Bool (= .def_26 .y.28))
(define-fun .def_130 () Bool (= .def_22 .y.26))
(define-fun .def_128 () Bool (or .def_37 .def_127))
(define-fun .def_88 () Bool (<= .def_22 0))
(define-fun .def_124 () Bool (or .def_88 .def_123))
(define-fun .def_120 () Bool (not .def_119))
(define-fun .def_115 () Int (+ .def_10 .def_114))
(define-fun .def_116 () Int (+ .def_8 .def_115))
(define-fun .def_117 () Bool (= .def_116 0))
(define-fun .def_110 () Int (+ .def_14 .def_109))
(define-fun .def_111 () Int (+ .def_10 .def_110))
(define-fun .def_112 () Bool (= .def_111 0))
(define-fun .def_101 () Int (+ .def_18 .def_98))
(define-fun .def_102 () Int (+ .def_10 .def_101))
(define-fun .def_103 () Bool (= .def_102 0))
(define-fun .def_94 () Int (+ .def_22 .def_91))
(define-fun .def_95 () Int (+ .def_10 .def_94))
(define-fun .def_96 () Bool (= .def_95 0))
(define-fun .def_89 () Bool (not .def_88))
(define-fun .def_85 () (Array Int Int) (store .def_20 .def_84 .def_72))
(define-fun .def_86 () Bool (= .y.25 .def_85))
(define-fun .def_81 () (Array Int Int) (store .def_16 .def_51 .def_77))
(define-fun .def_82 () Bool (= .y.23 .def_81))
(define-fun .def_78 () (Array Int Int) (store .def_12 .def_56 .def_77))
(define-fun .def_79 () Bool (= .y.21 .def_78))
(define-fun .def_74 () (Array Int Int) (store .def_24 .def_73 .def_72))
(define-fun .def_75 () Bool (= .y.27 .def_74))
(define-fun .def_68 () Int (* (- 1) .y.20))
(define-fun .def_69 () Int (+ .def_10 .def_68))
(define-fun .def_70 () Bool (= .def_69 (- 1)))
(define-fun .def_41 () Bool (and .def_38 .def_40))
(define-fun .def_44 () Bool (and .def_41 .def_43))
(define-fun .def_45 () Bool (and .def_32 .def_44))
(define-fun .def_46 () Bool (and .loc.31 .def_45))
(define-fun .def_48 () Bool (and .def_46 .def_47))
(define-fun .def_50 () Bool (and .def_48 .def_49))
(define-fun .def_55 () Bool (and .def_50 .def_54))
(define-fun .def_60 () Bool (and .def_55 .def_59))
(define-fun .def_62 () Bool (and .def_60 .def_61))
(define-fun .def_64 () Bool (and .def_62 .def_63))
(define-fun .def_66 () Bool (and .def_64 .def_65))
(define-fun .def_71 () Bool (and .def_66 .def_70))
(define-fun .def_76 () Bool (and .def_71 .def_75))
(define-fun .def_80 () Bool (and .def_76 .def_79))
(define-fun .def_83 () Bool (and .def_80 .def_82))
(define-fun .def_87 () Bool (and .def_83 .def_86))
(define-fun .def_90 () Bool (and .def_87 .def_89))
(define-fun .def_97 () Bool (and .def_90 .def_96))
(define-fun .def_104 () Bool (and .def_97 .def_103))
(define-fun .def_113 () Bool (and .def_104 .def_112))
(define-fun .def_118 () Bool (and .def_113 .def_117))
(define-fun .def_121 () Bool (and .def_118 .def_120))
(define-fun .def_125 () Bool (and .def_121 .def_124))
(define-fun .def_129 () Bool (and .def_125 .def_128))
(define-fun .def_131 () Bool (and .def_129 .def_130))
(define-fun .def_133 () Bool (and .def_131 .def_132))
(define-fun .def_376 () Bool (! (or .def_133 .def_375) :trans true))
(define-fun .def_378 () Bool (and .def_32 .def_34))
(define-fun .def_379 () Bool (! (not .def_378) :invar-property 0))
(assert true)
